16 48 17 22 35 38 49 46 31 39 41 1 11 42 8 27 21 7 12 37 47 19 33 14 36 25 3 40 2 10 30 43 50 0 45 29 4 32 26 20 5 23 18 9 15 34 44 6 28 24 13 16
16 48 17 22 35 38 11 46 31 36 41 1 49 42 8 27 21 7 12 37 47 19 33 14 39 25 3 40 2 10 30 43 50 0 45 29 4 32 26 20 5 23 18 9 15 34 44 6 28 24 13 16
16 48 17 22 35 38 11 46 31 36 41 1 49 42 8 27 21 7 12 37 47 19 6 14 39 25 3 40 2 10 30 43 50 0 45 29 4 32 26 20 5 23 18 9 15 34 44 33 28 24 13 16
16 48 17 22 35 38 11 46 31 36 41 1 49 42 8 27 21 7 12 37 25 19 6 14 39 47 3 40 2 10 30 43 50 0 45 29 4 32 26 20 5 23 18 9 15 34 44 33 28 24 13 16
16 48 17 22 35 38 11 46 31 36 0 1 49 25 8 27 21 7 12 32 42 19 6 14 39 47 33 40 2 10 30 43 15 41 45 29 5 37 26 20 4 23 18 9 50 34 24 3 28 44 13 16
16 48 17 22 35 38 11 46 31 36 0 1 49 25 8 27 21 7 12 32 42 19 6 14 39 47 33 40 26 10 30 43 15 41 45 29 5 37 2 20 4 23 18 9 50 34 24 3 28 44 13 16
16 48 17 22 35 38 11 46 31 36 0 1 49 25 8 27 21 7 12 32 42 10 6 14 39 47 33 40 26 19 30 43 15 41 45 29 5 37 2 20 4 23 18 9 50 34 24 3 28 44 13 16
16 48 7 22 35 24 11 46 31 36 0 1 49 25 8 27 45 17 12 32 42 10 6 14 39 47 33 40 26 19 30 43 15 41 21 29 5 37 2 20 4 23 18 9 50 34 38 3 28 44 13 16
16 48 7 22 35 24 11 46 31 36 0 1 50 25 8 27 45 17 12 32 42 10 6 14 39 47 33 40 26 19 30 43 15 41 21 29 5 37 2 20 4 23 18 9 49 34 38 3 28 44 13 16
16 48 7 22 35 24 11 46 31 36 0 2 50 25 8 27 45 17 12 32 42 10 6 14 39 47 33 40 26 19 30 43 15 41 21 29 5 37 1 20 4 23 18 9 49 34 38 3 28 44 13 16
40 48 7 22 35 24 11 46 31 36 0 2 50 25 8 27 45 17 12 32 42 10 6 14 39 47 33 16 26 19 30 43 15 41 21 29 5 37 1 20 4 23 18 9 49 34 38 3 28 44 13 40
40 48 7 22 35 24 3 46 31 36 0 2 50 25 8 27 45 17 12 32 42 10 6 14 39 47 33 16 26 19 30 43 15 41 21 29 5 37 1 20 4 23 18 9 49 34 38 11 28 44 13 40
40 48 7 22 26 24 3 46 31 36 0 2 50 25 8 27 45 17 12 32 42 10 6 14 39 47 33 16 35 19 30 43 15 41 21 29 5 37 1 20 4 23 18 9 49 34 38 11 28 44 13 40
40 48 7 22 26 27 3 46 31 36 0 44 50 25 8 24 45 17 12 32 42 10 6 2 39 47 21 16 35 19 30 43 15 41 33 29 5 37 1 20 4 23 18 9 49 34 38 11 28 14 13 40
40 48 7 22 26 27 3 46 31 11 0 44 50 25 8 24 45 17 12 32 42 10 6 2 39 47 21 16 35 15 30 43 19 41 33 29 5 37 1 20 4 23 18 9 49 34 38 36 28 14 13 40
40 48 7 22 26 27 3 46 31 11 0 44 50 25 8 24 45 17 12 32 42 10 6 30 39 47 21 16 35 15 2 43 19 41 33 29 5 37 1 20 4 23 18 9 49 34 38 36 28 14 13 40
40 48 7 22 26 27 3 46 31 11 0 44 50 25 19 24 45 17 12 32 42 10 6 30 39 47 21 16 35 15 2 43 8 41 33 29 5 37 1 20 4 23 18 9 49 34 38 36 28 14 13 40
40 25 7 22 26 3 27 46 31 4 0 44 34 48 19 24 45 17 12 32 42 10 6 30 39 47 21 16 35 15 2 43 8 41 33 29 5 37 1 20 11 23 18 9 49 50 38 36 28 14 13 40
40 25 7 22 26 3 27 46 31 4 0 35 34 48 19 24 45 17 12 32 42 10 6 30 39 47 21 16 44 15 2 43 1 41 33 29 5 37 8 20 11 23 18 9 49 50 38 36 28 14 13 40
40 25 7 22 26 3 27 20 31 4 0 35 34 45 19 24 48 17 12 32 42 10 6 30 39 47 21 16 44 15 2 43 1 41 33 29 5 37 8 46 11 23 18 9 49 50 38 36 28 14 13 40
40 25 7 22 26 3 27 20 31 4 0 35 34 45 19 24 48 17 12 32 42 10 6 30 38 47 21 16 44 15 2 43 1 41 33 29 5 37 8 46 11 23 18 9 49 50 39 36 28 14 13 40
40 25 7 22 26 3 27 20 31 4 30 35 34 45 19 24 48 17 12 32 42 10 6 0 38 47 21 16 44 15 2 43 1 41 33 29 5 37 8 46 11 23 18 9 49 50 39 36 28 14 13 40
40 25 7 22 26 3 27 20 31 4 30 35 34 45 19 24 48 17 12 32 42 2 6 0 38 47 21 16 44 15 10 43 1 41 33 29 5 37 8 46 11 23 18 9 49 50 39 36 28 14 13 40
40 25 7 22 26 3 27 20 31 4 30 35 34 45 19 24 48 17 12 32 42 2 6 0 38 47 21 16 44 15 10 43 1 41 33 29 5 37 8 46 11 23 18 9 49 50 39 36 28 14 13 40
40 25 41 22 26 3 27 20 31 4 30 50 34 45 19 24 48 17 12 32 42 2 6 0 38 47 21 16 44 15 10 43 1 14 33 29 5 37 8 46 11 23 18 9 49 35 39 36 28 7 13 40
40 25 41 22 26 3 27 20 31 4 30 50 34 45 19 24 48 17 12 32 42 2 6 0 38 47 21 16 44 15 10 43 1 14 33 29 5 37 8 46 11 23 18 9 49 35 28 36 39 7 13 40
40 25 33 22 26 3 27 20 31 4 30 50 34 45 19 24 48 17 12 32 42 2 0 6 9 47 21 16 44 15 10 43 1 14 41 29 5 37 23 46 11 8 18 38 49 35 28 36 39 7 13 40
40 25 33 22 26 3 31 20 27 4 30 50 34 45 19 10 48 17 12 32 42 2 0 6 9 47 21 16 44 15 24 43 1 14 41 29 5 37 23 46 11 8 18 38 49 35 28 36 39 7 13 40
40 25 33 22 26 3 31 20 27 4 30 50 34 45 19 10 48 17 47 32 42 24 0 6 9 12 21 16 44 15 2 43 1 14 41 29 5 37 23 46 11 8 18 38 49 35 28 36 39 7 13 40
40 25 33 22 26 3 31 20 27 4 30 50 34 45 19 10 48 17 47 32 42 35 0 6 9 12 21 16 44 15 2 43 1 14 41 29 5 37 23 46 11 8 18 38 49 24 39 36 28 7 13 40
40 25 33 22 26 3 31 20 27 4 30 50 34 45 19 12 48 17 47 37 42 35 0 6 9 10 21 16 44 15 2 43 1 14 41 29 5 32 23 46 11 8 18 38 49 24 39 36 28 7 13 40
40 38 33 22 26 3 31 20 27 4 30 50 34 45 19 12 48 17 47 37 42 35 0 6 9 10 21 16 44 15 2 43 1 14 41 29 5 32 23 46 11 8 18 25 49 24 39 36 28 7 13 40
40 38 33 22 26 3 31 20 27 4 30 50 34 45 19 12 24 17 47 37 42 35 0 6 9 10 21 16 44 15 2 43 1 14 41 29 5 32 23 46 11 8 18 25 49 48 39 36 28 7 13 40
40 38 33 22 26 3 31 20 27 4 30 50 34 45 19 12 32 17 47 37 42 35 0 6 9 10 21 16 44 15 2 43 1 14 41 29 5 24 23 46 11 8 18 25 49 48 39 36 28 7 13 40
40 38 33 22 26 3 31 20 27 4 30 50 34 45 19 12 32 17 47 37 42 35 0 6 9 10 21 48 44 15 2 43 1 14 41 29 5 24 23 46 11 8 18 25 49 16 39 36 28 7 13 40
40 38 33 22 26 3 31 20 27 4 30 50 34 45 19 12 32 17 47 37 42 35 0 6 9 10 21 48 44 15 2 43 1 8 41 29 5 24 23 46 11 14 18 25 49 16 39 36 28 7 13 40
40 38 33 22 26 3 31 20 27 4 30 50 34 45 19 12 32 17 47 37 42 35 0 6 9 10 21 48 44 25 2 43 1 8 41 29 5 24 23 46 11 14 18 15 49 16 39 36 28 7 13 40
40 38 33 22 26 3 31 20 27 25 30 50 34 45 19 12 32 17 47 37 42 35 0 6 9 10 21 48 44 4 2 43 1 8 41 29 5 24 23 46 11 14 18 15 49 16 39 36 28 7 13 40
40 38 33 22 26 3 31 20 27 25 30 50 34 45 19 12 32 17 47 37 42 35 0 6 9 10 21 48 44 4 2 43 1 8 41 29 5 24 23 46 11 14 18 15 49 16 39 36 28 7 13 40
40 38 33 22 26 3 31 20 27 25 21 50 34 41 19 12 32 17 47 37 42 35 0 49 2 10 30 48 44 4 9 43 1 8 45 29 5 24 23 46 11 14 18 15 6 16 39 36 28 7 13 40
40 38 33 22 26 3 31 20 27 25 21 50 34 41 19 12 32 16 47 37 42 35 0 49 2 10 30 48 44 4 9 43 1 8 45 29 5 24 23 46 11 14 18 15 6 17 39 36 28 7 13 40
40 38 33 22 26 3 31 20 27 25 21 50 34 41 19 12 32 16 37 47 42 35 0 49 2 10 30 48 44 4 9 43 1 8 45 29 5 24 23 46 39 14 18 15 6 17 11 36 28 7 13 40
40 38 33 22 26 3 31 20 27 25 21 50 34 41 19 12 32 16 37 47 42 35 0 49 2 10 30 48 44 4 9 43 1 8 45 29 5 24 23 46 39 14 18 15 6 17 11 36 28 7 13 40
40 38 33 22 26 3 31 20 27 32 21 50 34 41 19 12 25 16 37 47 42 35 0 49 2 10 30 48 44 4 9 43 1 8 45 5 39 24 23 46 29 14 18 15 6 17 11 36 28 7 13 40
40 38 33 22 26 3 31 20 27 32 2 50 34 43 19 12 25 16 4 15 42 35 0 49 21 10 30 48 44 11 9 41 1 8 45 5 39 24 23 46 29 14 18 47 6 17 37 36 28 7 13 40
40 38 33 22 26 3 31 20 27 32 2 50 34 43 19 12 25 16 44 15 42 35 0 49 21 10 30 48 4 11 9 41 1 8 45 5 39 24 23 46 29 14 18 47 6 17 37 36 28 7 13 40
40 38 33 22 26 3 31 20 27 32 2 50 34 43 19 12 25 8 44 15 42 35 0 49 21 10 17 48 4 11 9 41 1 16 45 5 39 24 23 46 29 14 18 47 6 30 37 36 28 7 13 40
40 38 33 22 26 3 31 20 27 32 2 50 34 43 19 12 25 8 44 15 42 35 0 49 21 10 17 48 4 16 9 41 1 11 45 5 39 24 23 46 29 14 18 47 6 30 37 36 28 7 13 40
40 38 33 22 26 3 31 20 27 32 2 50 34 43 19 12 25 8 44 15 42 35 0 21 49 10 17 48 4 16 9 41 1 11 45 5 39 24 23 46 29 14 18 37 6 30 47 36 28 7 13 40
40 38 33 22 26 3 31 20 27 32 2 50 34 43 19 12 25 8 44 15 42 35 0 21 49 10 17 48 4 16 9 41 1 45 11 5 39 24 23 46 29 14 18 37 6 30 47 36 28 7 13 40
40 38 33 22 26 3 31 20 27 16 2 50 34 43 19 12 25 8 45 15 42 35 0 21 49 10 17 48 4 39 9 41 1 14 11 5 32 24 23 46 29 44 18 37 6 30 47 36 28 7 13 40
30 38 33 22 26 3 31 20 27 16 2 50 34 43 19 12 25 8 45 15 1 35 0 21 49 10 17 48 4 39 9 41 42 14 11 5 32 24 23 46 29 44 18 37 6 40 47 36 28 7 13 30
30 38 33 22 26 3 31 20 27 16 2 50 34 43 19 12 25 8 45 15 1 35 0 21 49 10 17 48 4 39 9 32 42 14 11 5 41 24 23 46 29 44 18 37 6 40 47 36 28 7 13 30
40 38 33 22 26 3 31 20 27 25 21 50 34 41 19 12 32 16 37 47 42 35 0 49 2 10 30 48 44 4 9 43 1 8 45 29 5 24 23 46 39 14 18 15 6 17 11 36 28 7 13 40
